! VERYTIGHTOPT FREQ B3LYP D4 Def2-TZVPD VeryTightSCF

%PAL NPROCS 20 END

%SCF
MAXITER 500
END

%geom
MAXITER 500
end

* xyz 0 1
 H   -0.390095690900   0.002632942100   0.001199226200
 H    0.390091139200  -0.002605857700  -0.001220417800
*
