! MD QM/XTB B3LYP D4 Def2-TZVPD VeryTightSCF
%QMMM QMATOMS {60 61} END PrintLevel 4 END
%PAL NPROCS 20 END
%OUTPUT PrintLevel Maxi END
%METHOD ReducePrint false END
%md
  SCFLog Append
  restart
  timestep 0.20_fs
  thermostat none
  dump position stride 1 filename "trajectory.xyz"
  dump velocity stride 1 filename "velocity.xyz"
  run 3 
  PrintLevel High
end

* xyz 0 1
  C     -3.40977500000000    -0.72749700000000     0.51660400000000
  C     -2.79377500000000    -1.38725200000000     1.64077000000000
  C     -2.22359600000000    -0.63592800000000     2.65913400000000
  C     -2.24738300000000     0.80382400000000     2.59286900000000
  C     -2.84049000000000     1.43925100000000     1.51067900000000
  C     -3.43270300000000     0.65908200000000     0.45278300000000
  C     -3.11955200000000    -1.49886100000000    -0.66634500000000
  C     -2.32434000000000    -2.63517700000000    -0.27310700000000
  C     -2.12307400000000    -2.56617800000000     1.15258300000000
  C     -0.90725900000000    -2.94987600000000     1.70106700000000
  C     -0.96098000000000    -1.03472900000000     3.22868900000000
  C     -0.99945700000000     1.29465000000000     3.12146900000000
  C     -0.39095100000000     2.40243800000000     2.54821300000000
  C     -1.00656100000000     3.06213800000000     1.42433100000000
  C     -2.20826400000000     2.58984200000000     0.91526200000000
  C     -2.40953500000000     2.52093600000000    -0.51045700000000
  C     -3.16627500000000     1.32769700000000    -0.79646400000000
  C     -2.88678300000000     0.58489400000000    -1.93535300000000
  C     -2.86298900000000    -0.85500400000000    -1.86906500000000
  C     -1.30229500000000    -3.08523600000000    -1.09725700000000
  C     -1.03604200000000    -2.41675300000000    -2.34610000000000
  C     -1.80148000000000    -1.32273500000000    -2.72486600000000
  C     -1.16943500000000    -0.17214700000000    -3.32000400000000
  C     -1.83996200000000     1.00678800000000    -2.83210500000000
  C     -1.11156400000000     2.15560500000000    -2.55658400000000
  C     -1.40160300000000     2.92683500000000    -1.37400800000000
  C     -0.15385700000000     3.41758500000000    -0.84516000000000
  C      0.03986700000000     3.48396600000000     0.52747000000000
  C     -0.20463000000000     0.15839300000000     3.51450200000000
  C      3.11955300000000     1.49886100000000     0.66634500000000
  C      2.86299100000000     0.85500500000000     1.86906600000000
  C      2.88678500000000    -0.58489400000000     1.93535400000000
  C      3.16627400000000    -1.32769700000000     0.79646300000000
  C      3.43270400000000    -0.65908200000000    -0.45278200000000
  C      2.79377300000000     1.38725200000000    -1.64077000000000
  C      2.12307500000000     2.56617900000000    -1.15258300000000
  C      2.32434100000000     2.63517800000000     0.27310700000000
  C      1.30229500000000     3.08523800000000     1.09725800000000
  C      1.03604200000000     2.41675500000000     2.34610100000000
  C      1.80147900000000     1.32273400000000     2.72486300000000
  C      1.83996200000000    -1.00678700000000     2.83210400000000
  C      1.11156500000000    -2.15560500000000     2.55658500000000
  C      1.40160200000000    -2.92683500000000     1.37400800000000
  C      2.40953500000000    -2.52093700000000     0.51045800000000
  C      2.20826300000000    -2.58984000000000    -0.91526100000000
  C      2.84049100000000    -1.43925200000000    -1.51067900000000
  C      2.24738300000000    -0.80382400000000    -2.59286900000000
  C      2.22359600000000     0.63592800000000    -2.65913400000000
  C      0.90726000000000     2.94987600000000    -1.70106700000000
  C      0.31543600000000     2.16982800000000    -2.75867900000000
  C      0.96097900000000     1.03472800000000    -3.22868700000000
  C      0.20462900000000    -0.15839400000000    -3.51450500000000
  C      0.99945700000000    -1.29465000000000    -3.12146800000000
  C      0.39095100000000    -2.40243900000000    -2.54821400000000
  C      1.00656200000000    -3.06213800000000    -1.42433100000000
  C     -0.03986700000000    -3.48396800000000    -0.52747100000000
  C      0.15385700000000    -3.41758700000000     0.84515900000000
  C      1.16943500000000     0.17214700000000     3.32000300000000
  C     -0.31543500000000    -2.16982700000000     2.75867700000000
  C      3.40977200000000     0.72749700000000    -0.51660400000000
  H     -0.37214600000000     0.00250800000000     0.00114900000000
  H      0.37214100000000    -0.00248100000000    -0.00116700000000
*
