! VERYTIGHTOPT FREQ GFN2-xTB VeryTightSCF

%PAL NPROCS 20 END

%SCF
MAXITER 500
END

%geom
MAXITER 500
end

* xyz 0 1
 C    0.720732385290  -0.991978188663   3.304040974145
 C   -0.720732385290  -0.991978188664   3.304040974145
 C   -1.414713632523  -1.947174663711   2.574333509761
 C   -0.693986238866  -2.939184705447   1.816512006672
 C    0.693986238866  -2.939184705447   1.816512006673
 C    1.414713632523  -1.947174663711   2.574333509762
 C    1.166170209546   0.378937481482   3.304052719303
 C   -0.000000000000   1.226211079677   3.304075966002
 C   -1.166170209546   0.378937481482   3.304052719303
 C   -2.289065876907   0.743781600301   2.574343396327
 C   -2.580874620286  -1.568268758507   1.816497622523
 C   -1.414710151173  -3.173376288505   0.590320471458
 C   -0.720732809150  -3.398881545409  -0.590376845769
 C    0.720732809150  -3.398881545408  -0.590376845768
 C    1.414710151173  -3.173376288505   0.590320471458
 C    2.580884824006  -2.326114874212   0.590331649597
 C    2.580874620286  -1.568268758507   1.816497622523
 C    3.009775384798  -0.248223561845   1.816492350984
 C    2.289065876907   0.743781600301   2.574343396327
 C    0.000000000000   2.406907909414   2.574396427842
 C    1.166178464353   2.785823061641   1.816584422927
 C    2.289073713744   1.969978188332   1.816544882496
 C    3.009796733762   1.735784164191   0.590347718237
 C    3.455232881696   0.364865272052   0.590333262706
 C    3.455232881696  -0.364865272051  -0.590333262706
 C    3.009796733762  -1.735784164191  -0.590347718237
 C    2.289073713743  -1.969978188332  -1.816544882495
 C    1.166178464352  -2.785823061640  -1.816584422927
 C   -2.580884824006  -2.326114874212   0.590331649596
 C   -1.166170209546  -0.378937481482  -3.304052719303
 C   -2.289065876907  -0.743781600301  -2.574343396327
 C   -3.009775384798   0.248223561845  -1.816492350984
 C   -2.580874620286   1.568268758507  -1.816497622523
 C   -1.414713632523   1.947174663711  -2.574333509762
 C    0.720732385290   0.991978188664  -3.304040974145
 C    1.166170209546  -0.378937481482  -3.304052719303
 C    0.000000000000  -1.226211079677  -3.304075966002
 C   -0.000000000000  -2.406907909414  -2.574396427842
 C   -1.166178464353  -2.785823061641  -1.816584422927
 C   -2.289073713744  -1.969978188332  -1.816544882496
 C   -3.455232881696  -0.364865272052  -0.590333262706
 C   -3.455232881696   0.364865272051   0.590333262706
 C   -3.009796733762   1.735784164191   0.590347718237
 C   -2.580884824006   2.326114874212  -0.590331649597
 C   -1.414710151173   3.173376288505  -0.590320471458
 C   -0.693986238866   2.939184705447  -1.816512006673
 C    0.693986238866   2.939184705447  -1.816512006672
 C    1.414713632523   1.947174663711  -2.574333509761
 C    2.289065876907  -0.743781600301  -2.574343396327
 C    3.009775384798   0.248223561846  -1.816492350984
 C    2.580874620286   1.568268758507  -1.816497622523
 C    2.580884824006   2.326114874212  -0.590331649596
 C    1.414710151173   3.173376288505  -0.590320471458
 C    0.720732809150   3.398881545409   0.590376845769
 C   -0.720732809150   3.398881545408   0.590376845768
 C   -1.166178464352   2.785823061640   1.816584422927
 C   -2.289073713743   1.969978188332   1.816544882495
 C   -3.009796733762  -1.735784164191  -0.590347718237
 C   -3.009775384798  -0.248223561846   1.816492350984
 C   -0.720732385290   0.991978188663  -3.304040974145
*
