! MD GFN2-xTB VeryTightSCF
%PAL NPROCS 20 END
%md
  restart
  timestep 0.20_fs
  thermostat none
  dump position stride 1 filename "trajectory.xyz"
  dump velocity stride 1 filename "velocity.xyz"
  run 2501
end

* xyz 0 1
  C      0.72073300000000    -0.99199400000000     3.30404500000000
  C     -0.72073300000000    -0.99199400000000     3.30404500000000
  C     -1.41471800000000    -1.94718800000000     2.57434200000000
  C     -0.69398800000000    -2.93919300000000     1.81652000000000
  C      0.69398800000000    -2.93919300000000     1.81652000000000
  C      1.41471800000000    -1.94718800000000     2.57434200000000
  C      1.16616900000000     0.37892000000000     3.30405000000000
  C      0.00000000000000     1.22619200000000     3.30405900000000
  C     -1.16616900000000     0.37892000000000     3.30405000000000
  C     -2.28906600000000     0.74376700000000     2.57434500000000
  C     -2.58088600000000    -1.56828000000000     1.81651600000000
  C     -1.41471500000000    -3.17337900000000     0.59033500000000
  C     -0.72073200000000    -3.39887100000000    -0.59035200000000
  C      0.72073200000000    -3.39887100000000    -0.59035200000000
  C      1.41471500000000    -3.17337900000000     0.59033500000000
  C      2.58088700000000    -2.32611000000000     0.59033900000000
  C      2.58088600000000    -1.56828000000000     1.81651600000000
  C      3.00979000000000    -0.24823500000000     1.81651300000000
  C      2.28906600000000     0.74376700000000     2.57434500000000
  C      0.00000000000000     2.40688100000000     2.57436300000000
  C      1.16617200000000     2.78579200000000     1.81654600000000
  C      2.28906700000000     1.96995500000000     1.81652900000000
  C      3.00979800000000     1.73577300000000     0.59034400000000
  C      3.45523300000000     0.36485800000000     0.59033800000000
  C      3.45523300000000    -0.36485800000000    -0.59033800000000
  C      3.00979800000000    -1.73577300000000    -0.59034400000000
  C      2.28906700000000    -1.96995500000000    -1.81652900000000
  C      1.16617200000000    -2.78579200000000    -1.81654600000000
  C     -2.58088700000000    -2.32611000000000     0.59033900000000
  C     -1.16616900000000    -0.37892000000000    -3.30405000000000
  C     -2.28906600000000    -0.74376700000000    -2.57434500000000
  C     -3.00979000000000     0.24823500000000    -1.81651300000000
  C     -2.58088600000000     1.56828000000000    -1.81651600000000
  C     -1.41471800000000     1.94718800000000    -2.57434200000000
  C      0.72073300000000     0.99199400000000    -3.30404500000000
  C      1.16616900000000    -0.37892000000000    -3.30405000000000
  C     -0.00000000000000    -1.22619200000000    -3.30405900000000
  C     -0.00000000000000    -2.40688100000000    -2.57436300000000
  C     -1.16617200000000    -2.78579200000000    -1.81654600000000
  C     -2.28906700000000    -1.96995500000000    -1.81652900000000
  C     -3.45523300000000    -0.36485800000000    -0.59033800000000
  C     -3.45523300000000     0.36485800000000     0.59033800000000
  C     -3.00979800000000     1.73577300000000     0.59034400000000
  C     -2.58088700000000     2.32611000000000    -0.59033900000000
  C     -1.41471500000000     3.17337900000000    -0.59033500000000
  C     -0.69398800000000     2.93919300000000    -1.81652000000000
  C      0.69398800000000     2.93919300000000    -1.81652000000000
  C      1.41471800000000     1.94718800000000    -2.57434200000000
  C      2.28906600000000    -0.74376700000000    -2.57434500000000
  C      3.00979000000000     0.24823500000000    -1.81651300000000
  C      2.58088600000000     1.56828000000000    -1.81651600000000
  C      2.58088700000000     2.32611000000000    -0.59033900000000
  C      1.41471500000000     3.17337900000000    -0.59033500000000
  C      0.72073200000000     3.39887100000000     0.59035200000000
  C     -0.72073200000000     3.39887100000000     0.59035200000000
  C     -1.16617200000000     2.78579200000000     1.81654600000000
  C     -2.28906700000000     1.96995500000000     1.81652900000000
  C     -3.00979800000000    -1.73577300000000    -0.59034400000000
  C     -3.00979000000000    -0.24823500000000     1.81651300000000
  C     -0.72073300000000     0.99199400000000    -3.30404500000000
*
