! VERYTIGHTOPT FREQ QM/XTB B3LYP D4 Def2-TZVPD VeryTightSCF
%QMMM QMATOMS {60 61} END END

%PAL NPROCS 20 END

%SCF
MAXITER 500
END

%geom
MAXITER 500
end

* xyz 0 1
 C   -3.409809523600  -0.727516694900   0.516612711200
 C   -2.793784416300  -1.387278862900   1.640791534000
 C   -2.223579376600  -0.635935417200   2.659148517700
 C   -2.247368331700   0.803830380500   2.592883811500
 C   -2.840498093800   1.439276597300   1.510703917500
 C   -3.432736481500   0.659086382900   0.452793201900
 C   -3.119574540200  -1.498891901400  -0.666361366600
 C   -2.324336280000  -2.635203855600  -0.273104151600
 C   -2.123066145500  -2.566197357200   1.152583881600
 C   -0.907252131200  -2.949866948500   1.701049466400
 C   -0.960979279100  -1.034720203300   3.228670972300
 C   -0.999458528700   1.294639081100   3.121451938600
 C   -0.390933573800   2.402430460100   2.548200910200
 C   -1.006543899600   3.062132926200   1.424318569500
 C   -2.208257344000   2.589857358100   0.915265316000
 C   -2.409532027700   2.520962143800  -0.510459328400
 C   -3.166292557700   1.327719793600  -0.796490735400
 C   -2.886785231600   0.584902252800  -1.935380978500
 C   -2.862990804300  -0.855017113000  -1.869094030400
 C   -1.302286812600  -3.085243379200  -1.097243061000
 C   -1.036029893500  -2.416746592100  -2.346100277700
 C   -1.801475029600  -1.322728699600  -2.724871346700
 C   -1.169423351600  -0.172149022700  -3.319985811200
 C   -1.839957152500   1.006779666500  -2.832105694900
 C   -1.111550291000   2.155599548300  -2.556580729800
 C   -1.401588392900   2.926842979000  -1.373999367600
 C   -0.153865237700   3.417580968900  -0.845167745900
 C    0.039876972500   3.483962743200   0.527485551600
 C   -0.204610615000   0.158391140300   3.514469833400
 C    3.119574954500   1.498885630600   0.666371284800
 C    2.863002567600   0.855027566200   1.869079762200
 C    2.886792861100  -0.584903922700   1.935375153100
 C    3.166296510800  -1.327715183200   0.796488277200
 C    3.432734160500  -0.659095411100  -0.452788448400
 C    2.793778390600   1.387282512800  -1.640791631600
 C    2.123067873200   2.566192101100  -1.152588548100
 C    2.324342692300   2.635197550300   0.273101554300
 C    1.302276628000   3.085241623400   1.097253202000
 C    1.036026885000   2.416749642500   2.346098263900
 C    1.801471108900   1.322738877000   2.724872983000
 C    1.839949784700  -1.006786131600   2.832109999800
 C    1.111546064300  -2.155596905400   2.556582281500
 C    1.401578242100  -2.926841356600   1.374008469700
 C    2.409539967200  -2.520958560400   0.510450713100
 C    2.208259194600  -2.589854520300  -0.915266827900
 C    2.840495183000  -1.439283735100  -1.510698811700
 C    2.247358761200  -0.803830651500  -2.592888733100
 C    2.223577326400   0.635938745300  -2.659149855200
 C    0.907262093900   2.949863898100  -1.701052553600
 C    0.315427715200   2.169814922900  -2.758667204100
 C    0.960980220300   1.034730756500  -3.228671066600
 C    0.204614990600  -0.158391256000  -3.514472858000
 C    0.999453860200  -1.294652847600  -3.121448181000
 C    0.390940524500  -2.402424460900  -2.548207464000
 C    1.006558195900  -3.062128501900  -1.424320484100
 C   -0.039880151700  -3.483965433400  -0.527473437900
 C    0.153860568700  -3.417582278400   0.845165413200
 C    1.169412959800   0.172148766400   3.319991255300
 C   -0.315418424900  -2.169816184200   2.758663114500
 C    3.409807044100   0.727514099700  -0.516609351600
 H   -0.390095690900   0.002632942100   0.001199226200
 H    0.390091139200  -0.002605857700  -0.001220417800
*
